5 20 1
0 4
100
0 1 840 10
0 2 783 399
0 3 911 98
0 4 335 684
1 0 277 276
1 2 477 20
1 3 364 256
1 4 952 458
2 0 635 358
2 1 141 303
2 3 16 30
2 4 137 402
3 0 156 200
3 1 129 54
3 2 998 109
3 4 512 40
4 0 612 148
4 1 637 262
4 2 493 486
4 3 292 385
